webassembly/ejemplos_dzn/folder8_json_27.dzn
TERM = { '.', 's(2)', 's(5)', 's(4)', 'in_1', 'local_1', 'in_2', 'in_4', 'in_3', 's(1)', 's(0)', 'in_5', 's(3)', 'in_0'};
null = '.';
s = 8;
n = 11;
ndeps = 5;
max_registers_sz = 4;
NR = 1;
registers = [|'local_1', 'in_3'|];
dependencies = [|'i32.store8_1', 'call[function_index(0)]_4', |'call[function_index(0)]_4', 'i32.load8_u_5', |'call[function_index(0)]_4', 'i32.load8_u_6', |'i32.load8_u_5', 'i32.store_7', |'i32.load8_u_6', 'i32.store_7'|];
GET_ENUM = { GET1, GET2, GET3, GET4, GET5};
SET_ENUM = { SET1, SET2, SET3, SET4, SET5};
TEE_ENUM = { TEE1, TEE2, TEE3, TEE4, TEE5};
N = 6;
OP = { 'i32.add_0', 'call[function_index(0)]_4', 'i32.store8_1', 'i32.load8_u_5', 'i32.load8_u_6', 'i32.store_7' };
in_ops = [2, 0, 2, 1, 1, 2 ];
out_ops = [1, 3, 0, 1, 1, 0 ];
in1 = ['in_4', '.', 'in_1', 's(3)', 's(4)', 's(5)' ];
in2 = ['in_5', '.', 'in_2', '.', '.', 's(2)' ];
in3 = ['.', '.', '.', '.', '.', '.' ];
out1 = ['s(0)', 's(3)', '.', 's(4)', 's(5)', '.' ];
out2 = ['.', 's(2)', '.', '.', '.', '.' ];
out3 = ['.', 's(1)', '.', '.', '.', '.' ];
comm = [true, false, false, false, false, false ];
gas = [1, 1, 1, 1, 1, 1 ];
sz = [1, 1, 1, 1, 1, 1 ];
stor = [false, true, true, false, false, true ];
lb = [ 1, 1, 1, 1, 1, 1 ];
ub = [ 8, 8, 8, 8, 8, 8 ];
startstack = [ 'in_0', 'in_1', 'in_2', 'in_3', 'in_4', 'in_5', null, null, null, null, null ];
endstack = [ 's(1)', 's(0)', null, null, null, null, null, null, null, null, null ];
